benchmarks_CP/INST_36x36/30/inst36x36_30_30.dzn
S=6;
start=[|
-1,	16,	5,	30,	-1,	27,	-1,	-1,	-1,	-1,	-1,	-1,	-1,	-1,	-1,	1,	-1,	-1,	-1,	-1,	12,	-1,	-1,	35,	-1,	22,	-1,	-1,	19,	-1,	34,	-1,	-1,	32,	-1,	10|
-1,	-1,	31,	-1,	28,	-1,	-1,	18,	-1,	-1,	-1,	-1,	-1,	-1,	-1,	-1,	34,	-1,	-1,	-1,	15,	-1,	2,	-1,	-1,	-1,	8,	-1,	-1,	-1,	22,	-1,	-1,	-1,	-1,	-1|
-1,	-1,	-1,	4,	2,	-1,	3,	24,	-1,	-1,	-1,	20,	-1,	-1,	-1,	-1,	-1,	-1,	-1,	-1,	-1,	-1,	33,	34,	-1,	-1,	25,	27,	-1,	-1,	-1,	7,	36,	-1,	30,	-1|
-1,	9,	-1,	34,	-1,	-1,	-1,	1,	28,	-1,	16,	10,	4,	25,	33,	11,	-1,	-1,	3,	-1,	27,	8,	14,	36,	2,	-1,	-1,	-1,	7,	-1,	-1,	15,	-1,	-1,	-1,	35|
-1,	-1,	-1,	-1,	23,	-1,	27,	-1,	-1,	-1,	13,	-1,	-1,	-1,	-1,	-1,	-1,	-1,	-1,	-1,	-1,	-1,	-1,	-1,	-1,	26,	3,	-1,	-1,	-1,	-1,	-1,	2,	-1,	-1,	-1|
20,	-1,	-1,	36,	-1,	14,	-1,	-1,	34,	19,	-1,	-1,	-1,	21,	-1,	-1,	18,	-1,	-1,	30,	-1,	5,	-1,	-1,	-1,	-1,	-1,	-1,	-1,	1,	-1,	12,	-1,	-1,	-1,	-1|
-1,	-1,	3,	-1,	33,	16,	-1,	10,	-1,	-1,	1,	-1,	-1,	32,	21,	-1,	-1,	23,	-1,	-1,	-1,	-1,	-1,	6,	-1,	-1,	-1,	-1,	-1,	9,	-1,	13,	22,	-1,	12,	25|
-1,	10,	28,	-1,	1,	-1,	-1,	-1,	-1,	-1,	-1,	26,	-1,	-1,	-1,	29,	14,	-1,	-1,	-1,	-1,	-1,	-1,	-1,	-1,	17,	-1,	-1,	-1,	-1,	-1,	36,	23,	33,	16,	-1|
6,	-1,	8,	-1,	-1,	-1,	13,	-1,	-1,	-1,	-1,	-1,	12,	-1,	-1,	-1,	-1,	-1,	-1,	-1,	30,	-1,	-1,	16,	-1,	-1,	-1,	-1,	-1,	19,	-1,	3,	9,	-1,	26,	-1|
27,	-1,	11,	25,	-1,	-1,	18,	23,	-1,	-1,	7,	-1,	-1,	-1,	-1,	-1,	-1,	16,	-1,	-1,	-1,	-1,	-1,	-1,	-1,	-1,	29,	4,	21,	-1,	-1,	20,	-1,	-1,	2,	-1|
-1,	-1,	-1,	-1,	-1,	-1,	-1,	15,	-1,	29,	-1,	-1,	-1,	-1,	-1,	24,	9,	-1,	-1,	25,	-1,	-1,	-1,	-1,	26,	-1,	-1,	-1,	13,	12,	-1,	-1,	-1,	-1,	5,	-1|
-1,	-1,	36,	-1,	-1,	-1,	-1,	-1,	-1,	17,	-1,	-1,	-1,	6,	20,	33,	5,	-1,	-1,	-1,	-1,	-1,	23,	-1,	-1,	18,	-1,	-1,	3,	-1,	30,	11,	24,	-1,	10,	-1|
36,	-1,	-1,	-1,	-1,	6,	7,	-1,	-1,	-1,	-1,	2,	-1,	-1,	-1,	-1,	-1,	-1,	-1,	-1,	32,	-1,	-1,	-1,	-1,	19,	-1,	-1,	-1,	-1,	-1,	34,	-1,	-1,	-1,	14|
-1,	-1,	-1,	18,	-1,	-1,	-1,	-1,	-1,	-1,	-1,	13,	-1,	-1,	-1,	-1,	-1,	21,	-1,	-1,	-1,	-1,	-1,	-1,	22,	-1,	-1,	-1,	-1,	-1,	33,	31,	10,	-1,	8,	-1|
-1,	-1,	-1,	20,	35,	9,	-1,	-1,	-1,	-1,	-1,	-1,	-1,	-1,	-1,	-1,	-1,	-1,	-1,	-1,	-1,	-1,	-1,	-1,	-1,	10,	-1,	-1,	-1,	-1,	16,	29,	-1,	-1,	6,	7|
7,	22,	-1,	-1,	-1,	-1,	-1,	-1,	-1,	15,	-1,	-1,	-1,	11,	2,	18,	6,	-1,	-1,	-1,	-1,	-1,	17,	8,	16,	3,	-1,	-1,	24,	-1,	25,	28,	-1,	-1,	-1,	32|
-1,	26,	-1,	11,	-1,	-1,	-1,	-1,	-1,	-1,	-1,	5,	-1,	-1,	-1,	16,	31,	-1,	-1,	24,	-1,	34,	21,	-1,	-1,	-1,	-1,	-1,	-1,	6,	17,	-1,	-1,	12,	-1,	-1|
-1,	31,	-1,	-1,	-1,	-1,	-1,	9,	1,	18,	-1,	-1,	-1,	-1,	-1,	-1,	23,	-1,	-1,	-1,	-1,	-1,	-1,	-1,	-1,	-1,	13,	-1,	5,	7,	-1,	-1,	-1,	-1,	-1,	36|
23,	-1,	18,	-1,	-1,	-1,	-1,	-1,	-1,	10,	-1,	-1,	9,	-1,	-1,	8,	16,	15,	-1,	-1,	-1,	-1,	4,	-1,	27,	-1,	-1,	-1,	36,	-1,	3,	-1,	-1,	-1,	-1,	-1|
15,	-1,	-1,	-1,	31,	-1,	-1,	-1,	-1,	-1,	-1,	-1,	18,	-1,	29,	28,	-1,	-1,	-1,	-1,	9,	12,	-1,	-1,	19,	-1,	16,	26,	-1,	11,	-1,	-1,	20,	-1,	-1,	-1|
-1,	6,	-1,	-1,	-1,	-1,	-1,	-1,	-1,	-1,	4,	7,	-1,	-1,	-1,	-1,	-1,	-1,	16,	-1,	-1,	-1,	-1,	-1,	20,	-1,	-1,	13,	-1,	24,	-1,	-1,	-1,	15,	-1,	-1|
-1,	-1,	-1,	8,	-1,	36,	-1,	32,	29,	-1,	-1,	24,	34,	-1,	-1,	-1,	22,	-1,	-1,	1,	-1,	26,	-1,	-1,	-1,	-1,	-1,	-1,	-1,	-1,	-1,	18,	33,	-1,	-1,	-1|
-1,	-1,	25,	9,	19,	10,	-1,	-1,	-1,	-1,	18,	33,	-1,	-1,	-1,	20,	-1,	3,	-1,	-1,	-1,	22,	34,	-1,	-1,	-1,	-1,	-1,	8,	4,	27,	17,	-1,	-1,	-1,	26|
-1,	-1,	-1,	5,	26,	-1,	-1,	20,	23,	14,	-1,	-1,	19,	-1,	25,	-1,	-1,	-1,	-1,	13,	-1,	-1,	-1,	18,	3,	21,	-1,	9,	-1,	-1,	10,	-1,	8,	-1,	-1,	4|
-1,	-1,	-1,	-1,	-1,	-1,	14,	-1,	-1,	-1,	-1,	-1,	-1,	-1,	32,	-1,	-1,	11,	-1,	-1,	-1,	-1,	9,	22,	-1,	24,	-1,	-1,	-1,	-1,	20,	10,	-1,	-1,	29,	-1|
-1,	-1,	12,	19,	-1,	31,	23,	-1,	-1,	1,	-1,	-1,	-1,	20,	-1,	-1,	8,	-1,	-1,	-1,	-1,	-1,	-1,	-1,	-1,	-1,	-1,	-1,	-1,	34,	-1,	-1,	-1,	-1,	-1,	-1|
-1,	28,	35,	-1,	-1,	-1,	20,	-1,	-1,	-1,	-1,	-1,	-1,	-1,	-1,	25,	-1,	-1,	-1,	-1,	-1,	-1,	-1,	-1,	8,	12,	-1,	-1,	-1,	-1,	15,	33,	-1,	-1,	-1,	-1|
-1,	-1,	23,	27,	-1,	-1,	-1,	-1,	32,	28,	-1,	18,	29,	22,	-1,	-1,	-1,	-1,	-1,	-1,	-1,	30,	-1,	-1,	-1,	13,	9,	36,	-1,	-1,	-1,	-1,	34,	7,	-1,	-1|
-1,	34,	-1,	-1,	-1,	-1,	8,	4,	27,	-1,	-1,	17,	-1,	12,	-1,	-1,	-1,	-1,	-1,	-1,	-1,	23,	-1,	-1,	-1,	-1,	19,	-1,	-1,	-1,	2,	-1,	-1,	6,	-1,	-1|
22,	20,	9,	-1,	14,	30,	16,	-1,	-1,	-1,	-1,	-1,	13,	-1,	-1,	-1,	-1,	-1,	-1,	-1,	18,	-1,	-1,	-1,	31,	-1,	-1,	-1,	-1,	-1,	-1,	-1,	-1,	1,	-1,	-1|
-1,	25,	-1,	2,	-1,	-1,	-1,	7,	-1,	-1,	31,	-1,	32,	-1,	5,	34,	21,	22,	26,	-1,	11,	17,	-1,	-1,	-1,	6,	-1,	-1,	-1,	-1,	-1,	14,	-1,	-1,	-1,	-1|
-1,	11,	-1,	-1,	-1,	-1,	-1,	3,	-1,	26,	-1,	32,	-1,	1,	-1,	-1,	-1,	-1,	25,	-1,	24,	15,	-1,	-1,	23,	-1,	22,	-1,	-1,	-1,	-1,	9,	-1,	18,	-1,	5|
-1,	-1,	-1,	-1,	-1,	-1,	-1,	-1,	-1,	-1,	-1,	-1,	-1,	-1,	19,	-1,	-1,	-1,	-1,	-1,	2,	18,	-1,	-1,	-1,	-1,	-1,	31,	-1,	28,	-1,	30,	-1,	-1,	-1,	22|
-1,	18,	20,	-1,	-1,	-1,	-1,	28,	-1,	-1,	-1,	16,	-1,	-1,	-1,	-1,	2,	-1,	-1,	-1,	3,	-1,	-1,	-1,	21,	-1,	-1,	-1,	-1,	-1,	12,	-1,	-1,	8,	-1,	-1|
-1,	-1,	-1,	15,	22,	-1,	-1,	-1,	2,	-1,	9,	12,	35,	-1,	28,	7,	-1,	-1,	-1,	-1,	-1,	-1,	-1,	-1,	-1,	-1,	-1,	-1,	-1,	-1,	-1,	-1,	-1,	-1,	-1,	31|
-1,	-1,	14,	-1,	-1,	-1,	15,	35,	-1,	24,	-1,	-1,	8,	-1,	26,	23,	20,	-1,	-1,	-1,	-1,	-1,	-1,	-1,	-1,	16,	-1,	-1,	11,	-1,	-1,	-1,	-1,	-1,	-1,	-1|];
